GLPSOL: GLPK LP/MIP Solver, v4.55
Parameter(s) specified in the command line:
 -m tmp.mod
Reading model section from tmp.mod...
Reading data section from tmp.mod...
2781 lines were read
Generating obj...
Generating kirhoff...
Generating init_charge...
Generating batt_size...
Model has been successfully generated
GLPK Simplex Optimizer, v4.55
5540 rows, 4553 columns, 9188 non-zeros
Preprocessing...
2654 rows, 4444 columns, 9029 non-zeros
Scaling...
 A: min|aij| =  1.000e+00  max|aij| =  1.000e+00  ratio =  1.000e+00
Problem data seem to be well scaled
Constructing initial basis...
Size of triangular part is 1836
      0: obj =   0.000000000e+00  infeas =  3.637e+03 (818)
*   440: obj =   2.760000000e+02  infeas =  0.000e+00 (690)
*   500: obj =   1.450000000e+02  infeas =  0.000e+00 (690)
*   582: obj =   7.400000000e+01  infeas =  0.000e+00 (685)
OPTIMAL LP SOLUTION FOUND
Time used:   0.1 secs
Memory used: 10.3 Mb (10825802 bytes)
#OUTPUT:
74
-83 -91 -8 -2 -81 98 0 0 0 -76 0 0 0 0 0 -8 0 0 0 0 0 0 0 -8 0 0 -9 0 -4 0 0 0 0 0 2 -83 0 0 0 0 0 0 -4 -2 0 0 0 0 0 0 0 0 0 0 0 0 0 -9 0 0 0 0 3 0 0 0 0 -46 -82 0 0 0 0 -99 0 0 0 0 0 -4 0 0 0 0 0 -82 0 0 0 0 0 0 2 0 0 0 0 0 0 0 -4 0 -98 0 0 0 0 46 0 0 0 0 9 0 0 0 0 -3 0 0 0 0 0 0 0 0 0 0 -2 0 0 0 0 0 6 -2 0 0 0 0 0 0 0 0 0 0 0 0 0 0 0 0 0 0 0 0 0 0 0 0 0 0 0 0 0 0 0 0 0 0 0 0 0 0 0 0 0 0 0 0 0 0 0 0 0 0 0 0 0 0 0 0 0 0 0 0 0 0 0 0 0 0 0 0 0 0 0 0 0 0 0 0 0 0 0 0 0 0 0 0 0 0 0 0 0 0 0 0 0 0 0 0 0 0 0 0 0 0 0 0 0 0 0 0 0 
0 -71 0 0 0 44 -2 0 0 0 -3 0 0 -62 0 0 -63 0 0 0 0 2 0 0 0 0 0 -44 -94 3 0 3 0 -44 0 -69 0 -2 0 0 0 0 -94 0 0 0 0 0 0 0 0 0 0 0 0 0 0 0 0 0 0 0 0 0 0 0 0 0 0 0 0 0 -61 0 0 0 0 3 0 2 0 0 0 0 0 0 0 0 0 10 0 0 0 0 0 0 0 0 0 0 2 0 -47 0 -1 0 0 61 0 0 0 0 0 0 0 0 0 0 0 0 0 0 0 -3 0 -2 -8 0 0 0 2 -2 0 0 -2 0 0 0 0 0 0 0 0 0 0 0 0 0 0 0 0 0 0 0 0 0 0 0 0 0 0 0 0 0 0 0 0 0 0 0 0 0 0 0 0 0 0 0 0 0 0 0 0 0 0 0 0 0 0 0 0 0 0 0 0 0 0 0 0 0 0 0 0 0 0 0 0 0 0 0 0 0 0 0 0 0 0 0 0 0 0 0 0 0 0 0 0 0 0 0 0 0 0 0 0 0 0 0 0 0 0 0 0 0 0 
0 -3 0 0 0 0 0 0 0 0 0 0 0 3 0 0 0 0 0 0 0 0 0 0 0 0 0 0 0 3 0 0 0 0 0 -3 0 0 0 0 0 0 0 0 0 0 0 0 0 0 0 0 0 -3 0 0 0 0 0 0 0 0 0 0 0 0 0 0 0 0 0 0 0 0 3 0 0 0 0 0 0 0 0 0 0 0 0 0 0 0 0 0 0 0 0 0 0 0 0 0 0 0 0 0 -3 0 0 0 0 0 0 0 0 0 0 0 0 0 0 0 -3 3 0 0 0 0 0 0 0 0 0 0 0 0 0 0 0 0 0 0 0 0 0 0 0 0 0 0 0 0 0 0 0 0 0 0 0 0 0 0 0 0 0 0 0 0 0 0 0 0 0 0 0 0 0 0 0 0 0 0 0 0 0 0 0 0 0 0 0 0 0 0 0 0 0 0 0 0 0 0 0 0 0 0 0 0 0 0 0 0 0 0 0 0 0 0 0 0 0 0 0 0 0 0 0 0 0 0 0 0 0 0 0 0 0 0 0 0 0 0 0 0 0 0 0 
0 -5 0 0 0 98 0 -2 0 0 0 -2 0 0 0 0 0 0 0 0 0 0 0 0 0 0 -4 -94 0 3 0 0 0 -25 0 -3 0 0 0 0 0 0 0 0 0 0 0 0 -78 0 0 0 0 -3 0 0 0 -4 0 0 0 0 0 0 0 0 0 0 0 0 0 0 0 0 3 0 0 0 -3 0 9 0 0 0 0 0 0 0 0 0 9 0 0 0 0 0 0 0 0 0 0 0 -98 0 -3 7 0 0 0 0 0 0 0 7 0 0 -3 0 0 0 -3 3 0 0 3 0 0 -9 0 0 0 0 0 0 0 0 0 0 0 0 0 0 0 0 0 0 0 0 0 0 0 0 0 0 0 0 0 0 0 0 0 0 0 0 0 0 0 0 0 0 0 0 0 0 0 0 0 0 0 0 0 0 0 0 0 0 0 0 0 0 0 0 0 0 0 0 0 0 0 0 0 0 0 0 0 0 0 0 0 0 0 0 0 0 0 0 0 0 0 0 0 0 0 0 0 0 0 0 0 0 0 0 0 0 0 0 0 0 0 0 0 0 0 0 0 
1 -37 0 0 0 44 0 0 1 0 -3 0 0 -32 0 0 0 0 0 0 0 0 0 0 0 0 0 -44 0 3 0 3 0 -44 0 -37 0 0 0 0 0 0 0 0 0 0 0 -34 0 0 0 0 0 -37 0 0 0 0 0 0 0 0 0 0 0 0 0 0 0 0 0 0 0 0 0 37 0 3 0 0 0 0 0 0 0 0 0 0 0 0 0 0 0 0 0 0 0 0 0 0 0 0 -47 0 32 0 0 0 0 0 0 0 0 0 0 0 0 0 0 0 -37 0 0 -3 0 0 0 0 0 0 0 0 0 0 0 0 0 0 0 0 0 0 0 0 0 0 0 0 0 0 0 0 0 0 0 0 0 0 0 0 0 0 0 0 0 0 0 0 0 0 0 0 0 0 0 0 0 0 0 0 0 0 0 0 0 0 0 0 0 0 0 0 0 0 0 0 0 0 0 0 0 0 0 0 0 0 0 0 0 0 0 0 0 0 0 0 0 0 0 0 0 0 0 0 0 0 0 0 0 0 0 0 0 0 0 0 0 0 0 0 0 0 0 0 0 
-61 -74 0 0 -44 21 0 0 -7 -11 -3 0 2 -96 0 0 -100 -38 0 38 0 5 0 0 5 0 -19 0 0 -3 4 5 0 0 -2 -74 0 0 0 0 4 0 0 -2 0 0 0 0 0 -18 0 0 0 -36 0 0 0 -19 0 0 0 0 0 0 0 0 -95 0 0 0 0 0 0 0 -8 -18 0 5 0 0 0 4 0 0 0 0 0 0 0 0 0 0 -2 -12 0 0 -4 10 0 -33 0 0 -24 2 -4 0 0 38 0 0 -4 0 0 5 4 10 0 0 0 0 -46 -8 0 -5 0 0 0 0 -10 4 -4 -6 0 33 2 -2 0 0 0 0 0 0 0 0 0 0 0 0 0 0 0 0 0 0 0 0 0 0 0 0 0 0 0 0 0 0 0 0 0 0 0 0 0 0 0 0 0 0 0 0 0 0 0 0 0 0 0 0 0 0 0 0 0 0 0 0 0 0 0 0 0 0 0 0 0 0 0 0 0 0 0 0 0 0 0 0 0 0 0 0 0 0 0 0 0 0 0 0 0 0 0 0 0 0 0 0 0 0 0 0 0 0 0 0 0 
-3 -62 0 0 -3 55 0 -31 0 0 -3 0 0 -12 0 0 0 0 0 0 0 0 0 0 0 0 -2 -53 0 -3 0 7 0 0 0 -31 0 0 -1 4 0 0 0 0 0 -2 5 -4 0 0 0 0 0 -31 0 0 0 -2 0 0 0 0 0 0 26 -26 0 0 0 0 0 0 0 0 9 26 0 3 -5 0 0 0 0 0 0 0 0 0 0 0 0 0 0 0 0 0 0 0 0 0 0 0 -58 0 7 0 0 0 0 -3 0 4 0 0 2 0 0 0 26 -4 -31 5 0 -3 5 0 0 0 0 0 0 0 0 0 0 0 0 0 0 0 0 0 0 0 0 0 0 0 0 0 0 0 0 0 0 0 0 0 0 0 0 0 0 0 0 0 0 0 0 0 0 0 0 0 0 0 0 0 0 0 0 0 0 0 0 0 0 0 0 0 0 0 0 0 0 0 0 0 0 0 0 0 0 0 0 0 0 0 0 0 0 0 0 0 0 0 0 0 0 0 0 0 0 0 0 0 0 0 0 0 0 0 0 0 0 0 0 0 0 0 0 0 0 0 0 
-15 -15 0 -2 -11 30 0 -15 0 0 0 -3 0 -38 0 -10 0 0 0 0 0 0 0 -8 0 -2 -21 -9 0 0 -4 0 0 -9 0 0 0 -17 1 0 0 0 0 0 0 0 0 0 0 0 0 0 0 0 0 0 0 -21 0 0 0 0 0 0 0 0 0 0 0 0 0 0 0 0 0 0 0 0 -21 0 -9 -2 0 0 0 0 0 0 0 0 -9 0 4 0 0 0 2 0 0 0 0 0 -30 -2 17 -12 4 0 0 -1 0 0 -8 -12 -4 -17 -21 0 0 0 0 0 0 0 21 0 0 9 -4 -2 0 0 0 0 0 0 0 0 0 0 0 0 0 0 0 0 0 0 0 0 0 0 0 0 0 0 0 0 0 0 0 0 0 0 0 0 0 0 0 0 0 0 0 0 0 0 0 0 0 0 0 0 0 0 0 0 0 0 0 0 0 0 0 0 0 0 0 0 0 0 0 0 0 0 0 0 0 0 0 0 0 0 0 0 0 0 0 0 0 0 0 0 0 0 0 0 0 0 0 0 0 0 0 0 0 0 0 0 0 0 0 0 0 0 0 
-16 -68 -28 -2 -5 0 0 -39 -9 0 -3 23 2 0 -97 0 0 0 0 0 0 0 0 0 0 0 -21 -5 0 -3 0 -5 0 -5 -2 -1 0 -2 1 4 0 -97 0 0 0 0 0 -4 0 0 0 0 0 -1 -1 0 0 -21 0 0 0 3 0 0 -3 0 0 0 0 0 0 0 0 0 5 0 1 5 0 0 -49 0 0 0 0 0 0 0 0 0 0 0 2 0 0 0 0 0 -3 0 0 0 -3 -2 0 23 4 0 0 -4 0 4 0 23 0 -2 0 0 -3 -3 -1 1 -1 -5 0 0 0 0 -2 0 0 0 3 0 0 0 0 0 0 0 0 0 0 0 0 0 0 0 0 0 0 0 0 0 0 0 0 0 0 0 0 0 0 0 0 0 0 0 0 0 0 0 0 0 0 0 0 0 0 0 0 0 0 0 0 0 0 0 0 0 0 0 0 0 0 0 0 0 0 0 0 0 0 0 0 0 0 0 0 0 0 0 0 0 0 0 0 0 0 0 0 0 0 0 0 0 0 0 0 0 0 0 0 0 0 0 0 0 0 0 0 0 0 0 0 
#OUTPUT END
Model has been successfully processed
